; benchmark generated from python API
(set-info :status unknown)
(declare-fun s () Int)
(define-funs-rec ( ( Tn_01 ((x!1 Int)) Int)
                   ( pn_01 ((x!1 Int)) Int)
                   ( T2_01 ((x!1 Int)) Int)
                   ( p2_01 ((x!1 Int)) Int))
                 ( (mod ((_ pn_01 0) x!1) s)
                   (ite (= x!1 0) 0 (+ ((_ pn_01 0) (div x!1 s)) x!1))
                   (mod ((_ p2_01 0) x!1) 2)
                   (ite (= x!1 0) 0 (+ ((_ p2_01 0) (div x!1 2)) x!1))))
(assert
 (forall ((n Int) )(let ((?x209 ((_ Tn_01 0) n)))
(let ((?x174 ((_ T2_01 0) n)))
(let (($x210 (= ?x174 ?x209)))
(let (($x255 (>= n 0)))
(=> $x255 $x210))))))
)
(check-sat)
